n_couriers = 5;
n_items = 22;
max_load = [400, 600, 40, 35, 75]; %250 tot
size_item = [12, 8, 16, 5, 12, 5, 13, 20, 13, 18, 7, 6, 9, 9, 4, 25, 5, 17, 3, 16, 25, 21];% 269 tot

all_distances = [|
0, 8, 6, 7, 2, 9, 8, 4, 5, 7, 6, 4, 3, 3, 3, 4, 5, 9, 6, 4, 5, 4, 8|                        
8, 0, 9, 5, 9, 6, 5, 4, 6, 8, 2, 2, 7, 6, 5, 4, 6, 7, 2, 4, 8, 4, 4|                         
6, 9, 0, 3, 3, 3, 3, 8, 6, 5, 2, 6, 9, 2, 2, 7, 8, 8, 9, 6, 7, 5, 9|                                     
7, 5, 3, 0, 8, 6, 5, 2, 2, 9, 9, 2, 7, 8, 8, 8, 6, 7, 7, 9, 8, 6, 5|                        
2, 9, 3, 8, 0, 5, 9, 7, 4, 5, 4, 6, 8, 5, 4, 3, 4, 5, 9, 4, 6, 4, 2|                        
9, 6, 3, 6, 5, 0, 3, 7, 2, 2, 8, 8, 7, 9, 9, 7, 8, 7, 2, 2, 7, 8, 5|                        
8, 5, 3, 5, 9, 3, 0, 7, 8, 7, 7, 9, 6, 8, 2, 7, 6, 5, 3, 2, 3, 9, 9|                        
4, 4, 8, 2, 7, 7, 7, 0, 5, 9, 5, 8, 5, 4, 5, 7, 2, 8, 3, 9, 7, 6, 8|                        
5, 6, 6, 2, 4, 2, 8, 5, 0, 5, 4, 2, 2, 2, 8, 7, 6, 9, 7, 8, 8, 7, 3|                        
7, 8, 5, 9, 5, 2, 7, 9, 5, 0, 7, 7, 8, 7, 9, 9, 3, 2, 3, 3, 2, 7, 8|                        
6, 2, 2, 9, 4, 8, 7, 5, 4, 8, 0, 8, 8, 7, 6, 6, 7, 8, 6, 9, 9, 7, 8|                   
3, 6, 2, 7, 9, 3, 4, 4, 6, 2, 8, 0, 7, 6, 5, 7, 5, 4, 4, 9, 7, 8, 3|                   
6, 2, 7, 3, 9, 6, 5, 4, 2, 8, 8, 7, 0, 8, 8, 7, 6, 5, 7, 8, 6, 2, 2|                   
3, 2, 2, 5, 6, 7, 8, 4, 8, 6, 7, 6, 8, 0, 9, 3, 6, 3, 7, 6, 6, 7, 8|                   
5, 5, 2, 6, 9, 3, 3, 5, 8, 3, 6, 5, 8, 9, 0, 6, 7, 4, 5, 8, 5, 4, 9|                   
4, 6, 9, 9, 7, 3, 6, 4, 9, 3, 6, 7, 7, 3, 6, 0, 6, 9, 2, 7, 6, 8, 3|                   
6, 2, 8, 3, 6, 6, 7, 8, 6, 6, 7, 5, 6, 6, 7, 6, 0, 6, 5, 3, 3, 3, 3|                   
4, 8, 7, 3, 8, 8, 3, 6, 3, 5, 8, 4, 5, 3, 4, 9, 6, 0, 4, 7, 4, 4, 8|                   
4, 3, 6, 6, 8, 7, 3, 5, 3, 7, 6, 4, 7, 7, 5, 2, 5, 4, 0, 8, 4, 4, 4|                   
4, 6, 3, 3, 2, 5, 6, 7, 8, 3, 9, 9, 8, 6, 8, 7, 3, 7, 8, 0, 2, 6, 7| 
6, 3, 7, 7, 2, 6, 9, 5, 8, 7, 9, 7, 6, 9, 8, 6, 3, 5, 7, 6, 0, 5, 4|                   
5, 8, 6, 6, 5, 2, 2, 7, 3, 3, 7, 4, 2, 4, 3, 8, 3, 8, 7, 3, 5, 0, 4|                   
4, 4, 6, 7, 8, 7, 6, 4, 5, 6, 5, 7, 2, 7, 9, 3, 3, 6, 9, 9, 8, 7, 0|];